Cost: 362
0-22-3-36-35-20-29-2-32-0
0-27-1-28-31-26-7-23-6-0
0-12-37-17-4-18-25-14-0
0-5-33-39-30-34-9-38-11-0
Cost: 362
0-22-3-36-35-20-29-2-32-0
0-27-1-28-31-26-7-23-6-0
0-12-37-17-4-18-25-14-0
0-5-33-39-30-34-9-38-11-0
Cost: 362
0-22-3-36-35-20-29-2-32-0
0-27-1-28-31-26-7-23-6-0
0-12-37-17-4-18-25-14-0
0-5-33-39-30-34-9-38-11-0
Cost: 362
0-22-3-36-35-20-29-2-32-0
0-27-1-28-31-26-7-23-6-0
0-12-37-17-4-18-25-14-0
0-5-33-39-30-34-9-38-11-0
Cost: 362
0-22-3-36-35-20-29-2-32-0
0-27-1-28-31-26-7-23-6-0
0-12-37-17-4-18-25-14-0
0-5-33-39-30-34-9-38-11-0
Cost: 362
0-22-3-36-35-20-29-2-32-0
0-27-1-28-31-26-7-23-6-0
0-12-37-17-4-18-25-14-0
0-5-33-39-30-34-9-38-11-0
Cost: 362
0-22-3-36-35-20-29-2-32-0
0-27-1-28-31-26-7-23-6-0
0-12-37-17-4-18-25-14-0
0-5-33-39-30-34-9-38-11-0
Cost: 362
0-22-3-36-35-20-29-2-32-0
0-27-1-28-31-26-7-23-6-0
0-12-37-17-4-18-25-14-0
0-5-33-39-30-34-9-38-11-0
Cost: 362
0-22-3-36-35-20-29-2-32-0
0-27-1-28-31-26-7-23-6-0
0-12-37-17-4-18-25-14-0
0-5-33-39-30-34-9-38-11-0
Cost: 362
0-22-3-36-35-20-29-2-32-0
0-27-1-28-31-26-7-23-6-0
0-12-37-17-4-18-25-14-0
0-5-33-39-30-34-9-38-11-0
Cost: 362
0-22-3-36-35-20-29-2-32-0
0-6-23-7-26-31-28-1-27-0
0-12-37-17-4-18-25-14-0
0-5-33-39-30-34-9-38-11-0
Cost: 362
0-22-3-36-35-20-29-2-32-0
0-6-23-7-26-31-28-1-27-0
0-12-37-17-4-18-25-14-0
0-5-33-39-30-34-9-38-11-0
Cost: 362
0-22-3-36-35-20-29-2-32-0
0-6-23-7-26-31-28-1-27-0
0-12-37-17-4-18-25-14-0
0-5-33-39-30-34-9-38-11-0
Cost: 362
0-5-33-39-30-34-9-38-11-0
0-32-2-29-20-35-36-3-22-0
0-27-1-28-31-26-7-23-6-0
0-12-37-17-4-18-25-14-0
Cost: 362
0-22-3-36-35-20-29-2-32-0
0-6-23-7-26-31-28-1-27-0
0-12-37-17-4-18-25-14-0
0-5-33-39-30-34-9-38-11-0
Cost: 362
0-22-3-36-35-20-29-2-32-0
0-6-23-7-26-31-28-1-27-0
0-12-37-17-4-18-25-14-0
0-5-33-39-30-34-9-38-11-0
Cost: 362
0-22-3-36-35-20-29-2-32-0
0-6-23-7-26-31-28-1-27-0
0-12-37-17-4-18-25-14-0
0-5-33-39-30-34-9-38-11-0
Cost: 362
0-6-23-7-26-31-28-1-27-0
0-12-37-17-4-18-25-14-0
0-22-3-36-35-20-29-2-32-0
0-11-38-9-34-30-39-33-5-0
Cost: 362
0-27-1-28-31-26-7-23-6-0
0-12-37-17-4-18-25-14-0
0-5-33-39-30-34-9-38-11-0
0-22-3-36-35-20-29-2-32-0
Cost: 362
0-27-1-28-31-26-7-23-6-0
0-12-37-17-4-18-25-14-0
0-5-33-39-30-34-9-38-11-0
0-22-3-36-35-20-29-2-32-0
Cost: 362
0-14-25-18-4-17-37-12-0
0-27-1-28-31-26-7-23-6-0
0-32-2-29-20-35-36-3-22-0
0-5-33-39-30-34-9-38-11-0
Cost: 362
0-14-25-18-4-17-37-12-0
0-27-1-28-31-26-7-23-6-0
0-32-2-29-20-35-36-3-22-0
0-5-33-39-30-34-9-38-11-0
Cost: 362
0-22-3-36-35-20-29-2-32-0
0-27-1-28-31-26-7-23-6-0
0-14-25-18-4-17-37-12-0
0-5-33-39-30-34-9-38-11-0
Cost: 362
0-14-25-18-4-17-37-12-0
0-27-1-28-31-26-7-23-6-0
0-32-2-29-20-35-36-3-22-0
0-5-33-39-30-34-9-38-11-0
Cost: 362
0-6-23-7-26-31-28-1-27-0
0-12-37-17-4-18-25-14-0
0-22-3-36-35-20-29-2-32-0
0-11-38-9-34-30-39-33-5-0
Cost: 362
0-27-1-28-31-26-7-23-6-0
0-12-37-17-4-18-25-14-0
0-5-33-39-30-34-9-38-11-0
0-22-3-36-35-20-29-2-32-0
Cost: 362
0-11-38-9-34-30-39-33-5-0
0-32-2-29-20-35-36-3-22-0
0-14-25-18-4-17-37-12-0
0-27-1-28-31-26-7-23-6-0
Cost: 362
0-5-33-39-30-34-9-38-11-0
0-32-2-29-20-35-36-3-22-0
0-6-23-7-26-31-28-1-27-0
0-14-25-18-4-17-37-12-0
Cost: 362
0-14-25-18-4-17-37-12-0
0-22-3-36-35-20-29-2-32-0
0-6-23-7-26-31-28-1-27-0
0-11-38-9-34-30-39-33-5-0
Cost: 362
0-5-33-39-30-34-9-38-11-0
0-27-1-28-31-26-7-23-6-0
0-14-25-18-4-17-37-12-0
0-22-3-36-35-20-29-2-32-0
Cost: 362
0-14-25-18-4-17-37-12-0
0-22-3-36-35-20-29-2-32-0
0-11-38-9-34-30-39-33-5-0
0-6-23-7-26-31-28-1-27-0
